/*********************************************
 * OPL 12.6.0.0 Data
 * Author: Adrian Rodriguez Bazaga, Pau Rodriguez Esmerats
 * Creation Date: 06/12/2017 at 23:05:00
 *********************************************/

nNurses=304;
maxConsec=2;
maxPresence=7;
maxHours=5;
minHours=1;
hours=24;
demand= [47 44 60 66 44 60 66 44 40 22 4 10 8 12 10 12 8 9 6 2 51 93 44 71  ];
